proyfinal/src/viki/013/experimentInOfficeAgust.take6.output/e1d89075-638c-45ab-8213-b079bff7c30c.als.out
Reading from standard input... Use '--help' for help.
============================[ Problem Statistics ]=============================
|                                                                             |
|  Number of variables:         87638                                         |
|  Number of clauses:          161767                                         |
|  Parse time:                   0.04 s                                       |
|                                                                             |
============================[ Search Statistics ]==============================
| Conflicts |          ORIGINAL         |          LEARNT          | Progress |
|           |    Vars  Clauses Literals |    Limit  Clauses Lit/Cl |          |
===============================================================================
|       100 |   62140   104485   260623 |    38311      100     28 | 29.095 % |
|       250 |   62140   104485   260623 |    42142      250     46 | 29.095 % |
|       475 |   53423    78922   197716 |    46356      472     77 | 39.041 % |
|       812 |   53423    78922   197716 |    50992      809     59 | 39.041 % |
|      1318 |   53423    78922   197716 |    56091     1315     74 | 39.041 % |
|      2077 |   53408    78862   197573 |    61700     2072     70 | 39.058 % |
|      3216 |   53408    78862   197573 |    67870     3211     63 | 39.058 % |
|      4924 |   53359    78752   197312 |    74657     4907     61 | 39.114 % |
|      7486 |   53253    78116   195825 |    82123     6876     57 | 39.235 % |
|     11330 |   53130    77568   194577 |    90335    10691     55 | 39.376 % |
|     17096 |   52911    76634   192321 |    99369    14216     54 | 39.626 % |
===============================================================================
restarts              : 63
conflicts             : 17558          (9096 /sec)
decisions             : 51871          (0.00 % random) (26873 /sec)
propagations          : 22153712       (11477061 /sec)
conflict literals     : 922269         (47.71 % deleted)
Memory used           : 30.49 MB
CPU time              : 1.93026 s

UNSATISFIABLE
